p cnf 286
-8 -78
-9 -81
-10 -84
-11 -87
-12 -90
-13 -93
-14 -96
-15 -98
-16 -100
-17 -102
-18 -104
-19 -106
-20 -108
-21 -110
-22 111
-23 -13
-23 14
13 -14 23
-24 13
-24 -14
-13 14 24
-25 -23
-25 -24
23 24 25
-26 -1
-26 -2
1 2 26
-27 -3
-27 -4
3 4 27
-28 -5
-28 -6
5 6 28
-29 26
-29 27
-26 -27 29
-30 -7
-30 28
7 -28 30
-31 29
-31 30
-29 -30 31
-32 -15
-32 -16
15 16 32
-33 -17
-33 -18
17 18 33
-34 -19
-34 -20
19 20 34
-35 32
-35 33
-32 -33 35
-36 -21
-36 34
21 -34 36
-37 35
-37 36
-35 -36 37
-38 15
-38 -25
-15 25 38
-39 -15
-39 25
15 -25 39
-40 -38
-40 -39
38 39 40
-41 8
-41 16
-8 -16 41
-42 -8
-42 -16
8 16 42
-43 -41
-43 -42
41 42 43
-44 9
-44 17
-9 -17 44
-45 -9
-45 -17
9 17 45
-46 -44
-46 -45
44 45 46
-47 10
-47 18
-10 -18 47
-48 -10
-48 -18
10 18 48
-49 -47
-49 -48
47 48 49
-50 11
-50 19
-11 -19 50
-51 -11
-51 -19
11 19 51
-52 -50
-52 -51
50 51 52
-53 12
-53 20
-12 -20 53
-54 -12
-54 -20
12 20 54
-55 -53
-55 -54
53 54 55
-56 13
-56 21
-13 -21 56
-57 -13
-57 -21
13 21 57
-58 -56
-58 -57
56 57 58
-59 -40
-59 -43
40 43 59
-60 -46
-60 -49
46 49 60
-61 -52
-61 -55
52 55 61
-62 59
-62 60
-59 -60 62
-63 -58
-63 61
58 -61 63
-64 62
-64 63
-62 -63 64
-65 -37
-65 64
37 -64 65
-66 22
-66 65
-22 -65 66
-67 31
-67 66
-31 -66 67
-68 -8
-68 25
8 -25 68
-69 -9
-69 -10
9 10 69
-70 -11
-70 -12
11 12 70
-71 68
-71 69
-68 -69 71
-72 -13
-72 70
13 -70 72
-73 71
-73 72
-71 -72 73
-74 -37
-74 73
37 -73 74
-75 31
-75 -65
-31 65 75
-76 1
-76 -31
-1 31 76
-77 -25
-77 31
25 -31 77
-78 -76
-78 -77
76 77 78
-79 2
-79 -31
-2 31 79
-80 8
-80 31
-8 -31 80
-81 -79
-81 -80
79 80 81
-82 3
-82 -31
-3 31 82
-83 9
-83 31
-9 -31 83
-84 -82
-84 -83
82 83 84
-85 4
-85 -31
-4 31 85
-86 10
-86 31
-10 -31 86
-87 -85
-87 -86
85 86 87
-88 5
-88 -31
-5 31 88
-89 11
-89 31
-11 -31 89
-90 -88
-90 -89
88 89 90
-91 6
-91 -31
-6 31 91
-92 12
-92 31
-12 -31 92
-93 -91
-93 -92
91 92 93
-94 7
-94 -31
-7 31 94
-95 13
-95 31
-13 -31 95
-96 -94
-96 -95
94 95 96
-97 15
-97 31
-15 -31 97
-98 -76
-98 -97
76 97 98
-99 16
-99 31
-16 -31 99
-100 -79
-100 -99
79 99 100
-101 17
-101 31
-17 -31 101
-102 -82
-102 -101
82 101 102
-103 18
-103 31
-18 -31 103
-104 -85
-104 -103
85 103 104
-105 19
-105 31
-19 -31 105
-106 -88
-106 -105
88 105 106
-107 20
-107 31
-20 -31 107
-108 -91
-108 -107
91 107 108
-109 21
-109 31
-21 -31 109
-110 -94
-110 -109
94 109 110
-111 -22
-111 75
22 -75 111
-112 -67
-112 -74
67 74 112
-112
